
50
2476578

415 100024
288 100056
845 100019
444 100058
529 100071
552 100064
339 100000
640 100067
901 100027
72 100045
561 100086
265 100087
656 100013
624 100009
46 100076
113 100043
529 100071
859 100065
798 100099
824 100086
138 100100
351 100091
577 100057
367 100041
231 100016
923 100084
636 100049
399 100049
477 100029
700 100033
760 100050
780 100064
335 100031
968 100015
764 100060
271 100095
172 100056
431 100098
261 100018
878 100080
10 100054
818 100003
162 100017
812 100072
433 100082
132 100013
986 100069
419 100089
979 100024
323 100083
